DIMENSION: 10
EDGE_WEIGHT_TYPE: EXPLICIT
EDGE_WEIGHT_FORMAT: FULL_MATRIX
EDGE_WEIGHT_SECTION:
32767 11 34 7 32767 32767 6 65 32767 83 
11 32767 14 18 99 32767 32767 6 32767 5 
34 14 32767 36 79 90 17 32767 78 36 
7 18 36 32767 32767 23 94 7 32767 32767 
32767 99 79 32767 32767 1 32767 63 14 80 
32767 32767 90 23 1 32767 85 32767 32767 15 
6 32767 17 94 32767 85 32767 51 82 32767 
65 6 32767 7 63 32767 51 32767 18 32767 
32767 32767 78 32767 14 32767 82 18 32767 92 
83 5 36 32767 80 15 32767 32767 92 32767 
EOF